33290
1 0 1 0 0 1 1 0 0 0 1 1 1 1 1 0 1 1 1 1 1 1 1 1 1 1 1 1 1 1 
18 19 21 27 2 12 21 27 22 28 29 28 13 13 28 18 13 20 22 0 18 16 5 24 10 18 27 19 29 2 19 19 26 16 27 6 20 20 24 16 18 20 6 26 20 19 13 21 19 14 24 16 24 16 20 6 11 26 18 25 29 0 18 20 13 11 5 14 28 25 18 12 19 20 23 23 20 23 20 16 10 0 26 25 29 13 6 5 27 25 28 6 25 25 2 13 11 6 0 28 28 21 25 18 29 0 29 24 22 13 19 29 27 12 12 20 28 25 17 20 26 11 17 19 26 16 2 11 26 17 28 24 25 20 23 20 13 13 28 10 12 22 11 11 25 5 24 21 27 25 24 17 23 0 20 11 2 16 13 13 13 27 10 24 5 27 5 29 13 21 5 20 19 14 26 2 0 10 29 10 5 21 2 19 12 20 28 23 0 21 2 21 6 29 25 12 25 21 10 19 
